NAME : sample4
TYPE : TSP
DIMENSION : 20
EDGE_WEIGHT_TYPE : EUC_2D
NODE_COORD_SECTION
	0	-6,91	-11,23
	1	-9,06	-1,91
	2	-9,37	-16
	3	19,84	12,72
	4	14,19	17,78
	5	-2,93	5,25
	6	-1,29	14,13
	7	15,84	0,76
	8	-15,77	-13,22
	9	7,11	-0,57
	10	18,13	-12,9
	11	-19,44	-13,39
	12	9,72	16,63
	13	3,78	-11,53
	14	-7,74	18,88
	15	9,07	-15,35
	16	2,45	-5,03
	17	1,22	-1,59
	18	-17,51	-0,31
	19	-12,25	-7,35
EOF